\ENCODING=ISO-8859-1
\Problem name: linSegm

Minimize
 obj1: 7.07444306246875 x0 + 5.0080561174477 x1 + 3.79310979720573 x2
       + 2.65477310478104 x3 + 2.73281140759397 x4 + 4.05356264738835 x5
       + 3.27095858125347 x6 + 12.8924862829588 x7 + 16.5439881602898 x8
       + 21.157075546599 x9 + 25.5443975083787 x10 + 32.3705479001117 x11
       + 37.1820591599672 x12 + 41.03097218789 x13 + 44.785258190808 x14
       + 48.9148439541096 x15 - 2.16290731874155 x16 - 4.15277776967529 x17
       - 6.31393969338385 x18 - 1.52547843961807 x19 - 1.16088100029784 x20
       - 2.87124915130492 x21 + 8.48479418124759 x22 + 11.6058332579569 x23
       + 17.0184832597958 x24 + 19.989480512394 x25 + 26.7475640725332 x26
       + 31.1778752694598 x27 + 34.5673120101865 x28 + 37.8766957155548 x29
       + 41.6226263969404 x30 - 3.01240250271854 x31 - 5.10359981550593 x32
       - 0.724385819859447 x33 - 0.3105565237234 x34 - 1.89504580383883 x35
       + 9.11908948367554 x36 + 11.8855658092814 x37 + 16.637337219063 x38
       + 20.0707262326396 x39 + 25.1206751748934 x40 + 29.026211763016 x41
       + 31.9713970387608 x42 + 34.8520046493974 x43 + 38.1659785626671 x44
       - 3.01240250271854 x45 - 1.16067834803369 x46 + 1.76299922661972 x47
       - 0.610923051714647 x48 + 9.60825743239295 x49 + 11.9405585849616 x50
       + 15.9862092156072 x51 + 18.8506345449288 x52 + 24.182388409833 x53
       + 26.5385029500657 x54 + 29.0095363919981 x55 + 31.4295084938406 x56
       + 34.2808668560638 x57 + 1.8917437623401 x58 + 3.1071571453972 x59
       + 1.68074211087109 x60 + 9.15417596307927 x61 + 10.7569264604806 x62
       + 13.9682986435327 x63 + 16.1284364436998 x64 + 20.797654949702 x65
       + 23.5306260779092 x66 + 24.4147312404664 x67 + 26.2640580500035 x68
       + 28.5724719975491 x69 + 5.07168759594008 x70 + 2.6004932564909 x71
       + 9.33785271400058 x72 + 9.15417596307927 x73 + 11.4666536346915 x74
       + 12.8390154382841 x75 + 16.8388250075005 x76 + 18.8720215707493 x77
       + 20.0771884289252 x78 + 20.2603962076936 x79 + 21.9423493468889 x80
       + 5.03478705945196 x81 + 9.10765854920913 x82 + 9.33785271400058 x83
       + 9.7675030170626 x84 + 10.3921227634597 x85 + 13.5853320812241 x86
       + 14.8764315603675 x87 + 15.399337735314 x88 + 15.8991704456162 x89
       + 15.900891956706 x90 + 9.93893332451059 x91 + 8.74213750663808 x92
       + 9.33785271400058 x93 + 8.26947302279642 x94 + 10.5546707578121 x95
       + 11.0563981281864 x96 + 10.8942476997935 x97 + 10.690128279323 x98
       + 10.9377218690812 x99 + 5.18078283291328 x100 + 3.06070530047552 x101
       + 1.49630030299383 x102 + 2.05853243999369 x103 + 1.03923222120709 x104
       - 0.45249778014319 x105 - 2.04472209725753 x106 - 3.24514254579958 x107
       + 5.4605761011535 x108 + 3.06070530047551 x109 + 4.1159680443553 x110
       + 1.99378970735805 x111 + 0.597208698214507 x112
       - 0.934389727759093 x113 - 2.28447797243495 x114 + 3.11735605250502 x115
       + 1.81247724412439 x116 + 0.0480505803226032 x117
       - 2.11161670152952 x118 - 3.61517201938524 x119 - 5.6026608365976 x120
       + 3.11735605250502 x121 + 0.357670299280723 x122 - 1.41024867838088 x123
       - 4.4493545224669 x124 - 6.34528033718073 x125 - 2.16290731874159 x126
       - 3.28728011660798 x127 - 4.82490645553556 x128 - 8.42362065561049 x129
       - 0.13558177820071 x130 - 3.08909696254911 x131 - 5.5299042847484 x132
       + 0.264631760166955 x133 - 2.98175957404443 x134 - 4.76939193690792 x135
Subject To
 c0:  x0 + x1 + x2 + x3 + x4 + x5 + x6 + x7 + x8 + x9 + x10 + x11 + x12 + x13
      + x14 + x15 >= 1
 c1:  x0 + x1 + x2 + x3 + x4 + x5 + x6 + x7 + x8 + x9 + x10 + x11 + x12 + x13
      + x14 + x15 + x16 + x17 + x18 + x19 + x20 + x21 + x22 + x23 + x24 + x25
      + x26 + x27 + x28 + x29 + x30 >= 1
 c2:  x0 + x1 + x2 + x3 + x4 + x5 + x6 + x7 + x8 + x9 + x10 + x11 + x12 + x13
      + x14 + x15 + x16 + x17 + x18 + x19 + x20 + x21 + x22 + x23 + x24 + x25
      + x26 + x27 + x28 + x29 + x30 + x31 + x32 + x33 + x34 + x35 + x36 + x37
      + x38 + x39 + x40 + x41 + x42 + x43 + x44 >= 1
 c3:  x0 + x1 + x2 + x3 + x4 + x5 + x6 + x7 + x8 + x9 + x10 + x11 + x12 + x13
      + x14 + x15 + x16 + x17 + x18 + x19 + x20 + x21 + x22 + x23 + x24 + x25
      + x26 + x27 + x28 + x29 + x30 + x31 + x32 + x33 + x34 + x35 + x36 + x37
      + x38 + x39 + x40 + x41 + x42 + x43 + x44 + x45 + x46 + x47 + x48 + x49
      + x50 + x51 + x52 + x53 + x54 + x55 + x56 + x57 >= 1
 c4:  x0 + x1 + x2 + x3 + x4 + x5 + x6 + x7 + x8 + x9 + x10 + x11 + x12 + x13
      + x14 + x15 + x16 + x17 + x18 + x19 + x20 + x21 + x22 + x23 + x24 + x25
      + x26 + x27 + x28 + x29 + x30 + x31 + x32 + x33 + x34 + x35 + x36 + x37
      + x38 + x39 + x40 + x41 + x42 + x43 + x44 + x45 + x46 + x47 + x48 + x49
      + x50 + x51 + x52 + x53 + x54 + x55 + x56 + x57 + x58 + x59 + x60 + x61
      + x62 + x63 + x64 + x65 + x66 + x67 + x68 + x69 >= 1
 c5:  x1 + x2 + x3 + x4 + x5 + x6 + x7 + x8 + x9 + x10 + x11 + x12 + x13 + x14
      + x15 + x16 + x17 + x18 + x19 + x20 + x21 + x22 + x23 + x24 + x25 + x26
      + x27 + x28 + x29 + x30 + x31 + x32 + x33 + x34 + x35 + x36 + x37 + x38
      + x39 + x40 + x41 + x42 + x43 + x44 + x45 + x46 + x47 + x48 + x49 + x50
      + x51 + x52 + x53 + x54 + x55 + x56 + x57 + x58 + x59 + x60 + x61 + x62
      + x63 + x64 + x65 + x66 + x67 + x68 + x69 + x70 + x71 + x72 + x73 + x74
      + x75 + x76 + x77 + x78 + x79 + x80 >= 1
 c6:  x2 + x3 + x4 + x5 + x6 + x7 + x8 + x9 + x10 + x11 + x12 + x13 + x14 + x15
      + x17 + x18 + x19 + x20 + x21 + x22 + x23 + x24 + x25 + x26 + x27 + x28
      + x29 + x30 + x31 + x32 + x33 + x34 + x35 + x36 + x37 + x38 + x39 + x40
      + x41 + x42 + x43 + x44 + x45 + x46 + x47 + x48 + x49 + x50 + x51 + x52
      + x53 + x54 + x55 + x56 + x57 + x58 + x59 + x60 + x61 + x62 + x63 + x64
      + x65 + x66 + x67 + x68 + x69 + x70 + x71 + x72 + x73 + x74 + x75 + x76
      + x77 + x78 + x79 + x80 + x81 + x82 + x83 + x84 + x85 + x86 + x87 + x88
      + x89 + x90 >= 1
 c7:  x3 + x4 + x5 + x6 + x7 + x8 + x9 + x10 + x11 + x12 + x13 + x14 + x15
      + x18 + x19 + x20 + x21 + x22 + x23 + x24 + x25 + x26 + x27 + x28 + x29
      + x30 + x32 + x33 + x34 + x35 + x36 + x37 + x38 + x39 + x40 + x41 + x42
      + x43 + x44 + x45 + x46 + x47 + x48 + x49 + x50 + x51 + x52 + x53 + x54
      + x55 + x56 + x57 + x58 + x59 + x60 + x61 + x62 + x63 + x64 + x65 + x66
      + x67 + x68 + x69 + x70 + x71 + x72 + x73 + x74 + x75 + x76 + x77 + x78
      + x79 + x80 + x81 + x82 + x83 + x84 + x85 + x86 + x87 + x88 + x89 + x90
      + x91 + x92 + x93 + x94 + x95 + x96 + x97 + x98 + x99 >= 1
 c8:  x4 + x5 + x6 + x7 + x8 + x9 + x10 + x11 + x12 + x13 + x14 + x15 + x19
      + x20 + x21 + x22 + x23 + x24 + x25 + x26 + x27 + x28 + x29 + x30 + x33
      + x34 + x35 + x36 + x37 + x38 + x39 + x40 + x41 + x42 + x43 + x44 + x46
      + x47 + x48 + x49 + x50 + x51 + x52 + x53 + x54 + x55 + x56 + x57 + x58
      + x59 + x60 + x61 + x62 + x63 + x64 + x65 + x66 + x67 + x68 + x69 + x70
      + x71 + x72 + x73 + x74 + x75 + x76 + x77 + x78 + x79 + x80 + x81 + x82
      + x83 + x84 + x85 + x86 + x87 + x88 + x89 + x90 + x91 + x92 + x93 + x94
      + x95 + x96 + x97 + x98 + x99 + x100 + x101 + x102 + x103 + x104 + x105
      + x106 + x107 >= 1
 c9:  x5 + x6 + x7 + x8 + x9 + x10 + x11 + x12 + x13 + x14 + x15 + x20 + x21
      + x22 + x23 + x24 + x25 + x26 + x27 + x28 + x29 + x30 + x34 + x35 + x36
      + x37 + x38 + x39 + x40 + x41 + x42 + x43 + x44 + x47 + x48 + x49 + x50
      + x51 + x52 + x53 + x54 + x55 + x56 + x57 + x59 + x60 + x61 + x62 + x63
      + x64 + x65 + x66 + x67 + x68 + x69 + x70 + x71 + x72 + x73 + x74 + x75
      + x76 + x77 + x78 + x79 + x80 + x81 + x82 + x83 + x84 + x85 + x86 + x87
      + x88 + x89 + x90 + x91 + x92 + x93 + x94 + x95 + x96 + x97 + x98 + x99
      + x100 + x101 + x102 + x103 + x104 + x105 + x106 + x107 + x108 + x109
      + x110 + x111 + x112 + x113 + x114 >= 1
 c10: x6 + x7 + x8 + x9 + x10 + x11 + x12 + x13 + x14 + x15 + x21 + x22 + x23
      + x24 + x25 + x26 + x27 + x28 + x29 + x30 + x35 + x36 + x37 + x38 + x39
      + x40 + x41 + x42 + x43 + x44 + x48 + x49 + x50 + x51 + x52 + x53 + x54
      + x55 + x56 + x57 + x60 + x61 + x62 + x63 + x64 + x65 + x66 + x67 + x68
      + x69 + x71 + x72 + x73 + x74 + x75 + x76 + x77 + x78 + x79 + x80 + x81
      + x82 + x83 + x84 + x85 + x86 + x87 + x88 + x89 + x90 + x91 + x92 + x93
      + x94 + x95 + x96 + x97 + x98 + x99 + x100 + x101 + x102 + x103 + x104
      + x105 + x106 + x107 + x108 + x109 + x110 + x111 + x112 + x113 + x114
      + x115 + x116 + x117 + x118 + x119 + x120 >= 1
 c11: x7 + x8 + x9 + x10 + x11 + x12 + x13 + x14 + x15 + x22 + x23 + x24 + x25
      + x26 + x27 + x28 + x29 + x30 + x36 + x37 + x38 + x39 + x40 + x41 + x42
      + x43 + x44 + x49 + x50 + x51 + x52 + x53 + x54 + x55 + x56 + x57 + x61
      + x62 + x63 + x64 + x65 + x66 + x67 + x68 + x69 + x72 + x73 + x74 + x75
      + x76 + x77 + x78 + x79 + x80 + x82 + x83 + x84 + x85 + x86 + x87 + x88
      + x89 + x90 + x91 + x92 + x93 + x94 + x95 + x96 + x97 + x98 + x99 + x100
      + x101 + x102 + x103 + x104 + x105 + x106 + x107 + x108 + x109 + x110
      + x111 + x112 + x113 + x114 + x115 + x116 + x117 + x118 + x119 + x120
      + x121 + x122 + x123 + x124 + x125 >= 1
 c12: x8 + x9 + x10 + x11 + x12 + x13 + x14 + x15 + x23 + x24 + x25 + x26 + x27
      + x28 + x29 + x30 + x37 + x38 + x39 + x40 + x41 + x42 + x43 + x44 + x50
      + x51 + x52 + x53 + x54 + x55 + x56 + x57 + x62 + x63 + x64 + x65 + x66
      + x67 + x68 + x69 + x73 + x74 + x75 + x76 + x77 + x78 + x79 + x80 + x83
      + x84 + x85 + x86 + x87 + x88 + x89 + x90 + x92 + x93 + x94 + x95 + x96
      + x97 + x98 + x99 + x100 + x101 + x102 + x103 + x104 + x105 + x106 + x107
      + x108 + x109 + x110 + x111 + x112 + x113 + x114 + x115 + x116 + x117
      + x118 + x119 + x120 + x121 + x122 + x123 + x124 + x125 + x126 + x127
      + x128 + x129 >= 1
 c13: x9 + x10 + x11 + x12 + x13 + x14 + x15 + x24 + x25 + x26 + x27 + x28
      + x29 + x30 + x38 + x39 + x40 + x41 + x42 + x43 + x44 + x51 + x52 + x53
      + x54 + x55 + x56 + x57 + x63 + x64 + x65 + x66 + x67 + x68 + x69 + x74
      + x75 + x76 + x77 + x78 + x79 + x80 + x84 + x85 + x86 + x87 + x88 + x89
      + x90 + x93 + x94 + x95 + x96 + x97 + x98 + x99 + x101 + x102 + x103
      + x104 + x105 + x106 + x107 + x108 + x109 + x110 + x111 + x112 + x113
      + x114 + x115 + x116 + x117 + x118 + x119 + x120 + x121 + x122 + x123
      + x124 + x125 + x126 + x127 + x128 + x129 + x130 + x131 + x132 >= 1
 c14: x10 + x11 + x12 + x13 + x14 + x15 + x25 + x26 + x27 + x28 + x29 + x30
      + x39 + x40 + x41 + x42 + x43 + x44 + x52 + x53 + x54 + x55 + x56 + x57
      + x64 + x65 + x66 + x67 + x68 + x69 + x75 + x76 + x77 + x78 + x79 + x80
      + x85 + x86 + x87 + x88 + x89 + x90 + x94 + x95 + x96 + x97 + x98 + x99
      + x102 + x103 + x104 + x105 + x106 + x107 + x109 + x110 + x111 + x112
      + x113 + x114 + x115 + x116 + x117 + x118 + x119 + x120 + x121 + x122
      + x123 + x124 + x125 + x126 + x127 + x128 + x129 + x130 + x131 + x132
      + x133 + x134 >= 1
 c15: x11 + x12 + x13 + x14 + x15 + x26 + x27 + x28 + x29 + x30 + x40 + x41
      + x42 + x43 + x44 + x53 + x54 + x55 + x56 + x57 + x65 + x66 + x67 + x68
      + x69 + x76 + x77 + x78 + x79 + x80 + x86 + x87 + x88 + x89 + x90 + x95
      + x96 + x97 + x98 + x99 + x103 + x104 + x105 + x106 + x107 + x110 + x111
      + x112 + x113 + x114 + x116 + x117 + x118 + x119 + x120 + x121 + x122
      + x123 + x124 + x125 + x126 + x127 + x128 + x129 + x130 + x131 + x132
      + x133 + x134 + x135 >= 1
 c16: x12 + x13 + x14 + x15 + x27 + x28 + x29 + x30 + x41 + x42 + x43 + x44
      + x54 + x55 + x56 + x57 + x66 + x67 + x68 + x69 + x77 + x78 + x79 + x80
      + x87 + x88 + x89 + x90 + x96 + x97 + x98 + x99 + x104 + x105 + x106
      + x107 + x111 + x112 + x113 + x114 + x117 + x118 + x119 + x120 + x122
      + x123 + x124 + x125 + x126 + x127 + x128 + x129 + x130 + x131 + x132
      + x133 + x134 + x135 >= 1
 c17: x13 + x14 + x15 + x28 + x29 + x30 + x42 + x43 + x44 + x55 + x56 + x57
      + x67 + x68 + x69 + x78 + x79 + x80 + x88 + x89 + x90 + x97 + x98 + x99
      + x105 + x106 + x107 + x112 + x113 + x114 + x118 + x119 + x120 + x123
      + x124 + x125 + x127 + x128 + x129 + x130 + x131 + x132 + x133 + x134
      + x135 >= 1
 c18: x14 + x15 + x29 + x30 + x43 + x44 + x56 + x57 + x68 + x69 + x79 + x80
      + x89 + x90 + x98 + x99 + x106 + x107 + x113 + x114 + x119 + x120 + x124
      + x125 + x128 + x129 + x131 + x132 + x133 + x134 + x135 >= 1
 c19: x15 + x30 + x44 + x57 + x69 + x80 + x90 + x99 + x107 + x114 + x120 + x125
      + x129 + x132 + x134 + x135 >= 1
Bounds
 0 <= x0 <= 1
 0 <= x1 <= 1
 0 <= x2 <= 1
 0 <= x3 <= 1
 0 <= x4 <= 1
 0 <= x5 <= 1
 0 <= x6 <= 1
 0 <= x7 <= 1
 0 <= x8 <= 1
 0 <= x9 <= 1
 0 <= x10 <= 1
 0 <= x11 <= 1
 0 <= x12 <= 1
 0 <= x13 <= 1
 0 <= x14 <= 1
 0 <= x15 <= 1
 0 <= x16 <= 1
 0 <= x17 <= 1
 0 <= x18 <= 1
 0 <= x19 <= 1
 0 <= x20 <= 1
 0 <= x21 <= 1
 0 <= x22 <= 1
 0 <= x23 <= 1
 0 <= x24 <= 1
 0 <= x25 <= 1
 0 <= x26 <= 1
 0 <= x27 <= 1
 0 <= x28 <= 1
 0 <= x29 <= 1
 0 <= x30 <= 1
 0 <= x31 <= 1
 0 <= x32 <= 1
 0 <= x33 <= 1
 0 <= x34 <= 1
 0 <= x35 <= 1
 0 <= x36 <= 1
 0 <= x37 <= 1
 0 <= x38 <= 1
 0 <= x39 <= 1
 0 <= x40 <= 1
 0 <= x41 <= 1
 0 <= x42 <= 1
 0 <= x43 <= 1
 0 <= x44 <= 1
 0 <= x45 <= 1
 0 <= x46 <= 1
 0 <= x47 <= 1
 0 <= x48 <= 1
 0 <= x49 <= 1
 0 <= x50 <= 1
 0 <= x51 <= 1
 0 <= x52 <= 1
 0 <= x53 <= 1
 0 <= x54 <= 1
 0 <= x55 <= 1
 0 <= x56 <= 1
 0 <= x57 <= 1
 0 <= x58 <= 1
 0 <= x59 <= 1
 0 <= x60 <= 1
 0 <= x61 <= 1
 0 <= x62 <= 1
 0 <= x63 <= 1
 0 <= x64 <= 1
 0 <= x65 <= 1
 0 <= x66 <= 1
 0 <= x67 <= 1
 0 <= x68 <= 1
 0 <= x69 <= 1
 0 <= x70 <= 1
 0 <= x71 <= 1
 0 <= x72 <= 1
 0 <= x73 <= 1
 0 <= x74 <= 1
 0 <= x75 <= 1
 0 <= x76 <= 1
 0 <= x77 <= 1
 0 <= x78 <= 1
 0 <= x79 <= 1
 0 <= x80 <= 1
 0 <= x81 <= 1
 0 <= x82 <= 1
 0 <= x83 <= 1
 0 <= x84 <= 1
 0 <= x85 <= 1
 0 <= x86 <= 1
 0 <= x87 <= 1
 0 <= x88 <= 1
 0 <= x89 <= 1
 0 <= x90 <= 1
 0 <= x91 <= 1
 0 <= x92 <= 1
 0 <= x93 <= 1
 0 <= x94 <= 1
 0 <= x95 <= 1
 0 <= x96 <= 1
 0 <= x97 <= 1
 0 <= x98 <= 1
 0 <= x99 <= 1
 0 <= x100 <= 1
 0 <= x101 <= 1
 0 <= x102 <= 1
 0 <= x103 <= 1
 0 <= x104 <= 1
 0 <= x105 <= 1
 0 <= x106 <= 1
 0 <= x107 <= 1
 0 <= x108 <= 1
 0 <= x109 <= 1
 0 <= x110 <= 1
 0 <= x111 <= 1
 0 <= x112 <= 1
 0 <= x113 <= 1
 0 <= x114 <= 1
 0 <= x115 <= 1
 0 <= x116 <= 1
 0 <= x117 <= 1
 0 <= x118 <= 1
 0 <= x119 <= 1
 0 <= x120 <= 1
 0 <= x121 <= 1
 0 <= x122 <= 1
 0 <= x123 <= 1
 0 <= x124 <= 1
 0 <= x125 <= 1
 0 <= x126 <= 1
 0 <= x127 <= 1
 0 <= x128 <= 1
 0 <= x129 <= 1
 0 <= x130 <= 1
 0 <= x131 <= 1
 0 <= x132 <= 1
 0 <= x133 <= 1
 0 <= x134 <= 1
 0 <= x135 <= 1
Generals
 x0  x1  x2  x3  x4  x5  x6  x7  x8  x9  x10  x11  x12  x13  x14  x15  x16 
 x17  x18  x19  x20  x21  x22  x23  x24  x25  x26  x27  x28  x29  x30  x31 
 x32  x33  x34  x35  x36  x37  x38  x39  x40  x41  x42  x43  x44  x45  x46 
 x47  x48  x49  x50  x51  x52  x53  x54  x55  x56  x57  x58  x59  x60  x61 
 x62  x63  x64  x65  x66  x67  x68  x69  x70  x71  x72  x73  x74  x75  x76 
 x77  x78  x79  x80  x81  x82  x83  x84  x85  x86  x87  x88  x89  x90  x91 
 x92  x93  x94  x95  x96  x97  x98  x99  x100  x101  x102  x103  x104  x105 
 x106  x107  x108  x109  x110  x111  x112  x113  x114  x115  x116  x117  x118 
 x119  x120  x121  x122  x123  x124  x125  x126  x127  x128  x129  x130  x131 
 x132  x133  x134  x135 
End
